15 56
8 9
3 13
4 5
0 14
10 11
0 5
1 8
3 12
0 10
10 12
6 13
5 10
11 12
4 9
3 11
1 2
0 2
1 7
6 9
7 11
9 10
1 6
1 5
1 11
0 8
2 9
9 11
11 14
3 7
8 10
2 3
3 6
4 10
10 13
0 6
2 10
4 8
1 9
7 14
4 13
6 7
9 12
2 5
6 10
0 13
7 8
4 7
7 9
10 14
1 10
6 8
0 3
2 6
5 8
3 4
1 12
